benchmarks_CP/INST_36x36/30/inst36x36_30_38.dzn
S=6;
start=[|
-1,	-1,	16,	23,	-1,	11,	5,	13,	-1,	-1,	-1,	-1,	-1,	-1,	-1,	20,	-1,	-1,	36,	-1,	-1,	21,	-1,	34,	-1,	27,	-1,	-1,	-1,	24,	-1,	-1,	-1,	22,	-1,	28|
-1,	-1,	18,	36,	24,	-1,	9,	-1,	-1,	10,	-1,	-1,	-1,	-1,	-1,	-1,	-1,	-1,	-1,	-1,	-1,	4,	-1,	5,	-1,	-1,	-1,	-1,	-1,	-1,	-1,	-1,	-1,	-1,	12,	-1|
-1,	-1,	-1,	-1,	-1,	-1,	16,	4,	-1,	-1,	25,	-1,	36,	12,	-1,	-1,	24,	-1,	-1,	-1,	-1,	-1,	-1,	-1,	-1,	-1,	-1,	-1,	-1,	-1,	31,	-1,	-1,	-1,	18,	-1|
-1,	25,	-1,	-1,	-1,	-1,	14,	-1,	23,	24,	-1,	29,	-1,	-1,	-1,	18,	-1,	30,	-1,	-1,	-1,	-1,	-1,	-1,	-1,	-1,	-1,	-1,	-1,	-1,	32,	-1,	4,	-1,	26,	7|
2,	30,	-1,	-1,	-1,	-1,	-1,	-1,	-1,	17,	-1,	34,	-1,	8,	-1,	-1,	-1,	29,	-1,	-1,	-1,	-1,	-1,	-1,	14,	18,	-1,	-1,	5,	-1,	-1,	-1,	-1,	-1,	-1,	-1|
29,	-1,	-1,	-1,	9,	-1,	-1,	-1,	-1,	-1,	-1,	-1,	21,	-1,	35,	-1,	-1,	32,	-1,	-1,	-1,	-1,	22,	25,	-1,	-1,	20,	-1,	-1,	-1,	-1,	-1,	16,	14,	6,	-1|
17,	-1,	-1,	3,	-1,	10,	-1,	-1,	-1,	-1,	-1,	-1,	-1,	-1,	-1,	36,	-1,	-1,	-1,	28,	-1,	-1,	-1,	21,	-1,	-1,	-1,	-1,	32,	-1,	9,	-1,	29,	-1,	19,	-1|
6,	-1,	-1,	14,	34,	-1,	-1,	25,	19,	-1,	-1,	3,	-1,	-1,	-1,	21,	-1,	7,	-1,	-1,	-1,	-1,	-1,	24,	-1,	-1,	30,	17,	-1,	-1,	20,	13,	36,	-1,	-1,	-1|
-1,	-1,	32,	5,	22,	-1,	-1,	-1,	31,	-1,	-1,	-1,	-1,	6,	-1,	-1,	11,	-1,	19,	30,	-1,	34,	-1,	-1,	-1,	-1,	-1,	26,	-1,	18,	10,	-1,	28,	-1,	-1,	33|
-1,	-1,	-1,	31,	-1,	-1,	1,	-1,	-1,	-1,	-1,	-1,	5,	-1,	16,	-1,	-1,	-1,	-1,	27,	-1,	-1,	7,	6,	-1,	-1,	-1,	-1,	-1,	-1,	-1,	-1,	-1,	-1,	-1,	-1|
21,	-1,	-1,	-1,	12,	-1,	7,	8,	34,	-1,	18,	10,	-1,	14,	9,	-1,	-1,	25,	-1,	33,	-1,	-1,	36,	-1,	24,	-1,	1,	6,	-1,	-1,	-1,	-1,	-1,	-1,	-1,	-1|
16,	29,	-1,	-1,	-1,	-1,	-1,	-1,	26,	27,	-1,	-1,	22,	-1,	17,	28,	-1,	-1,	-1,	31,	-1,	-1,	-1,	-1,	5,	2,	-1,	-1,	-1,	-1,	-1,	8,	6,	-1,	-1,	-1|
-1,	-1,	29,	-1,	7,	-1,	26,	-1,	-1,	-1,	-1,	-1,	34,	2,	-1,	-1,	-1,	20,	-1,	-1,	-1,	-1,	-1,	-1,	9,	-1,	-1,	27,	21,	15,	-1,	-1,	-1,	-1,	5,	-1|
-1,	-1,	35,	-1,	-1,	2,	30,	29,	9,	-1,	23,	8,	13,	-1,	-1,	-1,	-1,	6,	-1,	16,	-1,	-1,	-1,	-1,	-1,	-1,	-1,	-1,	-1,	-1,	-1,	-1,	-1,	31,	4,	-1|
-1,	-1,	-1,	-1,	-1,	-1,	-1,	-1,	-1,	31,	19,	-1,	-1,	-1,	-1,	30,	29,	-1,	2,	-1,	32,	-1,	-1,	-1,	-1,	35,	-1,	-1,	12,	-1,	6,	-1,	-1,	-1,	-1,	-1|
-1,	-1,	-1,	-1,	3,	6,	-1,	-1,	7,	-1,	24,	-1,	-1,	-1,	-1,	-1,	-1,	18,	-1,	-1,	-1,	5,	-1,	-1,	28,	-1,	16,	34,	-1,	-1,	-1,	-1,	-1,	-1,	23,	-1|
-1,	-1,	-1,	-1,	13,	-1,	6,	-1,	-1,	-1,	-1,	17,	9,	-1,	-1,	-1,	16,	33,	-1,	-1,	29,	-1,	-1,	31,	-1,	-1,	24,	1,	-1,	-1,	-1,	-1,	-1,	-1,	-1,	-1|
-1,	-1,	-1,	-1,	-1,	-1,	-1,	-1,	15,	2,	21,	-1,	-1,	-1,	-1,	-1,	-1,	-1,	27,	-1,	-1,	-1,	-1,	33,	-1,	31,	-1,	-1,	-1,	-1,	22,	-1,	-1,	-1,	-1,	20|
22,	-1,	12,	7,	-1,	-1,	29,	6,	-1,	-1,	-1,	-1,	-1,	18,	-1,	-1,	-1,	-1,	-1,	-1,	-1,	-1,	20,	32,	-1,	-1,	-1,	-1,	-1,	4,	-1,	-1,	-1,	-1,	-1,	13|
28,	34,	10,	6,	-1,	36,	-1,	17,	-1,	4,	-1,	7,	-1,	-1,	-1,	-1,	2,	-1,	-1,	-1,	13,	31,	-1,	-1,	-1,	-1,	-1,	-1,	-1,	-1,	33,	-1,	-1,	-1,	-1,	-1|
-1,	24,	-1,	-1,	-1,	-1,	-1,	30,	-1,	13,	-1,	-1,	7,	-1,	-1,	6,	-1,	-1,	-1,	-1,	2,	-1,	-1,	-1,	3,	-1,	29,	-1,	-1,	-1,	11,	19,	18,	25,	-1,	31|
-1,	-1,	-1,	-1,	-1,	32,	-1,	-1,	-1,	-1,	-1,	-1,	-1,	-1,	-1,	-1,	-1,	12,	-1,	-1,	5,	30,	-1,	-1,	13,	36,	7,	23,	-1,	17,	-1,	24,	-1,	-1,	-1,	-1|
-1,	-1,	-1,	-1,	23,	-1,	-1,	15,	-1,	35,	-1,	-1,	-1,	3,	-1,	32,	-1,	13,	-1,	-1,	-1,	-1,	-1,	-1,	-1,	12,	-1,	-1,	-1,	14,	-1,	-1,	30,	6,	7,	10|
-1,	-1,	11,	13,	4,	15,	-1,	-1,	-1,	-1,	-1,	-1,	1,	-1,	-1,	8,	9,	10,	21,	-1,	-1,	-1,	-1,	-1,	-1,	-1,	-1,	2,	-1,	-1,	-1,	-1,	-1,	-1,	-1,	-1|
18,	-1,	-1,	1,	-1,	-1,	-1,	9,	29,	-1,	-1,	28,	-1,	-1,	-1,	-1,	-1,	-1,	-1,	22,	-1,	-1,	-1,	-1,	-1,	23,	-1,	-1,	-1,	12,	8,	-1,	-1,	35,	-1,	-1|
-1,	-1,	-1,	10,	-1,	34,	-1,	-1,	22,	-1,	15,	33,	8,	-1,	-1,	-1,	30,	-1,	-1,	3,	6,	-1,	14,	13,	-1,	20,	-1,	-1,	-1,	-1,	-1,	-1,	-1,	-1,	-1,	-1|
35,	-1,	-1,	-1,	-1,	-1,	-1,	-1,	4,	36,	-1,	-1,	16,	-1,	-1,	1,	-1,	-1,	-1,	-1,	-1,	-1,	27,	-1,	-1,	-1,	-1,	14,	28,	-1,	-1,	-1,	-1,	-1,	10,	-1|
-1,	-1,	-1,	-1,	-1,	-1,	-1,	35,	12,	26,	-1,	-1,	-1,	-1,	-1,	-1,	-1,	-1,	-1,	-1,	-1,	1,	-1,	-1,	-1,	-1,	-1,	19,	-1,	-1,	-1,	-1,	-1,	33,	15,	-1|
-1,	-1,	25,	-1,	-1,	24,	-1,	20,	16,	-1,	-1,	31,	-1,	-1,	-1,	11,	18,	22,	-1,	-1,	-1,	33,	-1,	-1,	-1,	34,	-1,	-1,	-1,	-1,	-1,	-1,	12,	-1,	-1,	-1|
-1,	31,	-1,	16,	-1,	-1,	-1,	-1,	25,	-1,	-1,	-1,	20,	-1,	-1,	-1,	10,	-1,	28,	-1,	-1,	-1,	-1,	-1,	18,	-1,	-1,	-1,	-1,	-1,	5,	14,	-1,	-1,	-1,	19|
-1,	-1,	-1,	4,	-1,	-1,	-1,	-1,	17,	-1,	-1,	-1,	-1,	-1,	34,	-1,	-1,	24,	-1,	10,	-1,	-1,	-1,	29,	23,	6,	-1,	-1,	7,	-1,	2,	-1,	-1,	-1,	-1,	-1|
23,	-1,	27,	24,	-1,	-1,	3,	-1,	8,	-1,	-1,	-1,	-1,	-1,	-1,	-1,	-1,	-1,	17,	13,	-1,	-1,	-1,	12,	36,	29,	31,	-1,	-1,	-1,	-1,	-1,	-1,	10,	-1,	32|
34,	-1,	-1,	9,	-1,	-1,	33,	-1,	-1,	-1,	-1,	18,	-1,	29,	-1,	10,	-1,	8,	-1,	-1,	-1,	-1,	-1,	19,	-1,	-1,	-1,	32,	27,	-1,	12,	-1,	5,	26,	-1,	30|
14,	35,	-1,	12,	-1,	-1,	-1,	-1,	-1,	15,	-1,	-1,	18,	-1,	-1,	-1,	-1,	3,	33,	-1,	16,	-1,	28,	-1,	-1,	25,	-1,	24,	-1,	8,	-1,	7,	-1,	-1,	-1,	-1|
11,	-1,	-1,	-1,	-1,	-1,	32,	-1,	-1,	-1,	-1,	-1,	-1,	-1,	-1,	-1,	-1,	16,	-1,	-1,	-1,	-1,	-1,	14,	-1,	-1,	-1,	-1,	-1,	9,	-1,	6,	-1,	-1,	-1,	-1|
-1,	10,	-1,	-1,	18,	-1,	-1,	27,	-1,	28,	13,	-1,	2,	11,	5,	-1,	-1,	-1,	-1,	-1,	23,	8,	-1,	36,	-1,	-1,	3,	-1,	-1,	-1,	-1,	-1,	-1,	4,	34,	-1|];
